letting n =  10
letting blocks =  [[1, 2], [3, 3], [3, 10], [4, 6], [4, 7], [5, 5], [5, 6], [5, 7], [5, 10], [6, 3], [6, 8], [6, 9], [7, 3], [7, 5], [7, 8], [8, 1], [8, 4], [9, 4], [9, 8], [10, 2], [10, 4], [10, 5], [10, 6], [10, 9]]
